\ENCODING=ISO-8859-1
\Problem name: IloCplex

Minimize
 obj:
Subject To
 c1:  x1 + x13 + x25 + x37 + x49 + x61 + x73 + x85 + x97 + x109 + x121 + x133
       = 1
 c2:  x2 + x14 + x26 + x38 + x50 + x62 + x74 + x86 + x98 + x110 + x122 + x134
       = 1
 c3:  x3 + x15 + x27 + x39 + x51 + x63 + x75 + x87 + x99 + x111 + x123 + x135
       = 1
 c4:  x4 + x16 + x28 + x40 + x52 + x64 + x76 + x88 + x100 + x112 + x124 + x136
       = 1
 c5:  x5 + x17 + x29 + x41 + x53 + x65 + x77 + x89 + x101 + x113 + x125 + x137
       = 1
 c6:  x6 + x18 + x30 + x42 + x54 + x66 + x78 + x90 + x102 + x114 + x126 + x138
       = 1
 c7:  x7 + x19 + x31 + x43 + x55 + x67 + x79 + x91 + x103 + x115 + x127 + x139
       = 1
 c8:  x8 + x20 + x32 + x44 + x56 + x68 + x80 + x92 + x104 + x116 + x128 + x140
       = 1
 c9:  x9 + x21 + x33 + x45 + x57 + x69 + x81 + x93 + x105 + x117 + x129 + x141
       = 1
 c10: x10 + x22 + x34 + x46 + x58 + x70 + x82 + x94 + x106 + x118 + x130 + x142
       = 1
 c11: x11 + x23 + x35 + x47 + x59 + x71 + x83 + x95 + x107 + x119 + x131 + x143
       = 1
 c12: x12 + x24 + x36 + x48 + x60 + x72 + x84 + x96 + x108 + x120 + x132 + x144
       = 1
 c13: x1 + x2 + x3 + x4 + x5 + x6 + x7 + x8 + x9 + x10 + x11 + x12  = 1
 c14: x13 + x14 + x15 + x16 + x17 + x18 + x19 + x20 + x21 + x22 + x23 + x24
       = 1
 c15: x25 + x26 + x27 + x28 + x29 + x30 + x31 + x32 + x33 + x34 + x35 + x36
       = 1
 c16: x37 + x38 + x39 + x40 + x41 + x42 + x43 + x44 + x45 + x46 + x47 + x48
       = 1
 c17: x49 + x50 + x51 + x52 + x53 + x54 + x55 + x56 + x57 + x58 + x59 + x60
       = 1
 c18: x61 + x62 + x63 + x64 + x65 + x66 + x67 + x68 + x69 + x70 + x71 + x72
       = 1
 c19: x73 + x74 + x75 + x76 + x77 + x78 + x79 + x80 + x81 + x82 + x83 + x84
       = 1
 c20: x85 + x86 + x87 + x88 + x89 + x90 + x91 + x92 + x93 + x94 + x95 + x96
       = 1
 c21: x97 + x98 + x99 + x100 + x101 + x102 + x103 + x104 + x105 + x106 + x107
      + x108  = 1
 c22: x109 + x110 + x111 + x112 + x113 + x114 + x115 + x116 + x117 + x118
      + x119 + x120  = 1
 c23: x121 + x122 + x123 + x124 + x125 + x126 + x127 + x128 + x129 + x130
      + x131 + x132  = 1
 c24: x133 + x134 + x135 + x136 + x137 + x138 + x139 + x140 + x141 + x142
      + x143 + x144  = 1
 c25: x1 + x2 + x3 + x4 + x5 + x6 + x7 + x13 + x14 + x15 + x16 + x17 + x18
      + x19 + x25 + x26 + x27 + x28 + x29 + x30 + x31  = 3
 c26: x43 + x44 + x45 + x46 + x47 + x48 + x55 + x56 + x57 + x58 + x59 + x60
       = 2
 c27: x61 + x62 + x63 + x64 + x65  = 1
 c28: x78 + x79 + x80 + x81 + x90 + x91 + x92 + x93  = 2
 c29: x106 + x107 + x108  = 1
 c30: x116 + x117 + x118 + x119 + x120  = 1
 c31: x121 + x122 + x123 + x124 + x125 + x126 + x133 + x134 + x135 + x136
      + x137 + x138  = 2
Bounds
 0 <= x1 <= 1
 0 <= x2 <= 1
 0 <= x3 <= 1
 0 <= x4 <= 1
 0 <= x5 <= 1
 0 <= x6 <= 1
 0 <= x7 <= 1
 0 <= x8 <= 1
 0 <= x9 <= 1
 0 <= x10 <= 1
 0 <= x11 <= 1
 0 <= x12 <= 1
 0 <= x13 <= 1
 0 <= x14 <= 1
 0 <= x15 <= 1
 0 <= x16 <= 1
 0 <= x17 <= 1
 0 <= x18 <= 1
 0 <= x19 <= 1
 0 <= x20 <= 1
 0 <= x21 <= 1
 0 <= x22 <= 1
 0 <= x23 <= 1
 0 <= x24 <= 1
 0 <= x25 <= 1
 0 <= x26 <= 1
 0 <= x27 <= 1
 0 <= x28 <= 1
 0 <= x29 <= 1
 0 <= x30 <= 1
 0 <= x31 <= 1
 0 <= x32 <= 1
 0 <= x33 <= 1
 0 <= x34 <= 1
 0 <= x35 <= 1
 0 <= x36 <= 1
 0 <= x37 <= 1
 0 <= x38 <= 1
 0 <= x39 <= 1
 0 <= x40 <= 1
 0 <= x41 <= 1
 0 <= x42 <= 1
 0 <= x43 <= 1
 0 <= x44 <= 1
 0 <= x45 <= 1
 0 <= x46 <= 1
 0 <= x47 <= 1
 0 <= x48 <= 1
 0 <= x49 <= 1
 0 <= x50 <= 1
 0 <= x51 <= 1
 0 <= x52 <= 1
 0 <= x53 <= 1
 0 <= x54 <= 1
 0 <= x55 <= 1
 0 <= x56 <= 1
 0 <= x57 <= 1
 0 <= x58 <= 1
 0 <= x59 <= 1
 0 <= x60 <= 1
 0 <= x61 <= 1
 0 <= x62 <= 1
 0 <= x63 <= 1
 0 <= x64 <= 1
 0 <= x65 <= 1
 0 <= x66 <= 1
 0 <= x67 <= 1
 0 <= x68 <= 1
 0 <= x69 <= 1
 0 <= x70 <= 1
 0 <= x71 <= 1
 0 <= x72 <= 1
 0 <= x73 <= 1
 0 <= x74 <= 1
 0 <= x75 <= 1
 0 <= x76 <= 1
 0 <= x77 <= 1
 0 <= x78 <= 1
 0 <= x79 <= 1
 0 <= x80 <= 1
 0 <= x81 <= 1
 0 <= x82 <= 1
 0 <= x83 <= 1
 0 <= x84 <= 1
 0 <= x85 <= 1
 0 <= x86 <= 1
 0 <= x87 <= 1
 0 <= x88 <= 1
 0 <= x89 <= 1
 0 <= x90 <= 1
 0 <= x91 <= 1
 0 <= x92 <= 1
 0 <= x93 <= 1
 0 <= x94 <= 1
 0 <= x95 <= 1
 0 <= x96 <= 1
 0 <= x97 <= 1
 0 <= x98 <= 1
 0 <= x99 <= 1
 0 <= x100 <= 1
 0 <= x101 <= 1
 0 <= x102 <= 1
 0 <= x103 <= 1
 0 <= x104 <= 1
 0 <= x105 <= 1
 0 <= x106 <= 1
 0 <= x107 <= 1
 0 <= x108 <= 1
 0 <= x109 <= 1
 0 <= x110 <= 1
 0 <= x111 <= 1
 0 <= x112 <= 1
 0 <= x113 <= 1
 0 <= x114 <= 1
 0 <= x115 <= 1
 0 <= x116 <= 1
 0 <= x117 <= 1
 0 <= x118 <= 1
 0 <= x119 <= 1
 0 <= x120 <= 1
 0 <= x121 <= 1
 0 <= x122 <= 1
 0 <= x123 <= 1
 0 <= x124 <= 1
 0 <= x125 <= 1
 0 <= x126 <= 1
 0 <= x127 <= 1
 0 <= x128 <= 1
 0 <= x129 <= 1
 0 <= x130 <= 1
 0 <= x131 <= 1
 0 <= x132 <= 1
 0 <= x133 <= 1
 0 <= x134 <= 1
 0 <= x135 <= 1
 0 <= x136 <= 1
 0 <= x137 <= 1
 0 <= x138 <= 1
 0 <= x139 <= 1
 0 <= x140 <= 1
 0 <= x141 <= 1
 0 <= x142 <= 1
 0 <= x143 <= 1
 0 <= x144 <= 1
Binaries
 x1  x2  x3  x4  x5  x6  x7  x8  x9  x10  x11  x12  x13  x14  x15  x16  x17 
 x18  x19  x20  x21  x22  x23  x24  x25  x26  x27  x28  x29  x30  x31  x32 
 x33  x34  x35  x36  x37  x38  x39  x40  x41  x42  x43  x44  x45  x46  x47 
 x48  x49  x50  x51  x52  x53  x54  x55  x56  x57  x58  x59  x60  x61  x62 
 x63  x64  x65  x66  x67  x68  x69  x70  x71  x72  x73  x74  x75  x76  x77 
 x78  x79  x80  x81  x82  x83  x84  x85  x86  x87  x88  x89  x90  x91  x92 
 x93  x94  x95  x96  x97  x98  x99  x100  x101  x102  x103  x104  x105  x106 
 x107  x108  x109  x110  x111  x112  x113  x114  x115  x116  x117  x118  x119 
 x120  x121  x122  x123  x124  x125  x126  x127  x128  x129  x130  x131  x132 
 x133  x134  x135  x136  x137  x138  x139  x140  x141  x142  x143  x144 
End
